17	4
12	10	10	12	
0	0	0	0	0	3	2	3	4	
10	0	0	0	4	3	5	7	8	
1	0	0	0	10	1	11	
9	4	0	0	0	2	6	16	
3	6	0	0	0	2	15	17	
25	3	0	0	0	2	10	12	
175	0	4	0	0	3	9	14	17	
25	0	0	0	2	1	13	
100	10	0	0	0	1	17	
250	0	0	0	2	1	17	
150	0	0	10	0	3	14	16	17	
50	0	0	0	6	2	13	17	
3	0	7	0	0	3	17	17	17	
1	0	0	3	0	1	17	
3	0	0	0	6	2	16	17	
1	0	0	10	0	1	17	
0	0	0	0	0	0	
